NAME : mr47
COMMENT : 47-city problem (DISC)
TYPE : TSP
DIMENSION : 47
EDGE_WEIGHT_TYPE : EUC_2D
NODE_COORD_SECTION
1 12 97
2 98 15
3 73 52
4 36 53
5 71 31
6 80 16
7 65 60
8 42 11
9 71 57
10 25 39
11 26 9
12 3 57
13 10 65
14 31 67
15 65 19
16 33 96
17 19 6
18 92 89
19 28 79
20 28 26
21 96 93
22 13 45
23 75 38
24 1 90
25 86 76
26 70 78
27 56 88
28 94 49
29 52 31
30 18 45
31 54 53
32 30 61
33 2 53
34 89 98
35 66 61
36 95 84
37 75 9
38 27 49
39 37 91
40 53 92
41 55 22
42 26 41
43 18 55
44 37 65
45 15 48
46 39 57
47 48 59
EOF
